jobs  (incl. supersource/sink ):	102
RESOURCES
- renewable                 : 2 R
- nonrenewable              : 2 N
- doubly constrained        : 0 D
************************************************************************
PRECEDENCE RELATIONS:
jobnr.    #modes  #successors   successors
1	1	9		2 5 6 7 8 10 13 14 18 
2	3	3		16 9 3 
3	3	5		21 15 12 11 4 
4	3	8		29 26 25 24 23 20 19 17 
5	3	7		35 29 26 23 22 20 12 
6	3	4		25 22 15 12 
7	3	4		35 29 23 12 
8	3	7		39 33 30 25 24 20 19 
9	3	4		38 31 28 15 
10	3	7		39 38 33 31 29 25 24 
11	3	6		39 35 28 27 22 20 
12	3	4		39 31 24 17 
13	3	5		39 35 29 28 20 
14	3	4		29 27 25 23 
15	3	7		40 39 35 34 33 30 29 
16	3	4		35 28 25 22 
17	3	7		43 40 38 34 33 32 30 
18	3	7		43 39 38 34 33 32 30 
19	3	3		35 31 28 
20	3	4		38 34 32 31 
21	3	4		43 40 38 28 
22	3	6		43 40 38 37 34 32 
23	3	5		43 39 38 33 32 
24	3	3		43 40 28 
25	3	4		43 40 34 32 
26	3	4		41 39 38 31 
27	3	5		43 41 38 37 36 
28	3	3		37 34 32 
29	3	5		47 44 43 41 32 
30	3	4		48 41 37 36 
31	3	5		56 48 43 40 37 
32	3	5		57 56 50 48 36 
33	3	3		42 41 37 
34	3	5		48 47 46 44 41 
35	3	5		49 47 46 45 44 
36	3	5		52 51 49 45 42 
37	3	4		50 47 46 44 
38	3	7		60 57 56 52 50 48 45 
39	3	6		57 54 53 52 51 46 
40	3	5		61 59 54 53 46 
41	3	5		65 59 54 52 50 
42	3	4		61 59 53 46 
43	3	5		71 65 63 57 49 
44	3	7		73 65 64 62 58 57 52 
45	3	8		74 72 71 65 63 62 61 53 
46	3	7		74 72 71 70 64 63 55 
47	3	5		74 63 60 59 53 
48	3	11		83 74 72 69 68 67 66 65 64 63 61 
49	3	4		74 73 72 53 
50	3	8		75 74 73 72 64 63 61 58 
51	3	8		72 71 70 69 68 65 63 58 
52	3	9		83 80 74 72 69 68 67 66 61 
53	3	6		75 70 69 68 64 58 
54	3	10		82 78 77 76 75 72 71 70 66 62 
55	3	6		78 76 73 69 65 60 
56	3	9		83 82 76 75 72 70 67 66 64 
57	3	3		78 69 59 
58	3	7		83 82 78 77 76 67 66 
59	3	7		83 82 80 76 75 70 67 
60	3	7		85 83 80 77 75 68 67 
61	3	6		81 79 78 77 76 70 
62	3	5		85 84 80 79 67 
63	3	7		101 100 91 90 85 78 76 
64	3	6		101 93 85 81 80 77 
65	3	4		93 85 81 75 
66	3	5		93 90 85 84 79 
67	3	7		101 93 92 91 87 86 81 
68	3	6		100 92 91 90 84 82 
69	3	5		93 87 86 81 79 
70	3	7		100 93 92 90 88 85 84 
71	3	7		101 100 92 91 87 86 83 
72	3	8		101 100 93 92 90 88 87 86 
73	3	7		101 100 93 90 89 88 86 
74	3	5		101 93 92 88 84 
75	3	2		86 79 
76	3	4		93 88 87 84 
77	3	4		92 88 87 84 
78	3	4		92 89 88 86 
79	3	6		101 100 96 92 89 88 
80	3	6		100 98 97 92 90 87 
81	3	5		100 98 90 89 88 
82	3	5		99 93 89 88 87 
83	3	4		98 90 89 88 
84	3	3		97 89 86 
85	3	3		98 97 87 
86	3	3		99 98 96 
87	3	3		96 95 94 
88	3	2		97 94 
89	3	2		95 94 
90	3	2		96 94 
91	3	2		98 95 
92	3	1		94 
93	3	1		95 
94	3	1		102 
95	3	1		102 
96	3	1		102 
97	3	1		102 
98	3	1		102 
99	3	1		102 
100	3	1		102 
101	3	1		102 
102	1	0		
************************************************************************
REQUESTS/DURATIONS
jobnr.	mode	dur	R1	R2	N1	N2	
------------------------------------------------------------------------
1	1	0	0	0	0	0	
2	1	3	4	4	8	3	
	2	6	4	3	7	2	
	3	9	4	3	7	1	
3	1	4	4	1	7	8	
	2	5	3	1	4	6	
	3	8	2	1	3	4	
4	1	1	2	4	7	9	
	2	5	1	4	7	6	
	3	8	1	4	7	2	
5	1	2	3	4	8	3	
	2	4	2	3	7	2	
	3	5	1	3	6	1	
6	1	2	2	5	8	9	
	2	3	1	4	7	9	
	3	5	1	4	7	8	
7	1	6	4	3	3	9	
	2	8	4	2	3	4	
	3	9	2	2	3	3	
8	1	1	4	2	5	8	
	2	2	3	2	5	8	
	3	3	2	2	5	8	
9	1	1	4	1	5	7	
	2	4	2	1	3	6	
	3	9	2	1	1	4	
10	1	1	2	5	4	9	
	2	6	1	4	2	8	
	3	7	1	4	2	6	
11	1	4	1	4	9	5	
	2	5	1	3	8	5	
	3	9	1	3	8	4	
12	1	3	3	2	7	4	
	2	4	2	2	7	4	
	3	5	2	1	6	2	
13	1	8	4	5	7	7	
	2	9	4	3	5	5	
	3	10	3	3	2	5	
14	1	1	2	5	7	8	
	2	7	1	3	4	5	
	3	10	1	2	2	4	
15	1	5	3	2	4	7	
	2	6	2	1	4	6	
	3	9	2	1	4	4	
16	1	1	2	5	10	9	
	2	3	2	4	8	9	
	3	4	2	3	6	8	
17	1	5	4	1	5	7	
	2	6	3	1	2	6	
	3	8	3	1	2	3	
18	1	3	1	2	10	5	
	2	5	1	1	8	3	
	3	10	1	1	6	2	
19	1	1	4	4	7	4	
	2	5	2	2	4	4	
	3	9	2	2	4	3	
20	1	5	5	1	3	6	
	2	6	3	1	3	5	
	3	7	2	1	3	4	
21	1	3	3	5	3	10	
	2	4	3	3	1	9	
	3	7	3	2	1	8	
22	1	4	1	4	9	8	
	2	7	1	3	9	8	
	3	8	1	3	9	7	
23	1	3	4	4	8	9	
	2	4	3	4	8	7	
	3	7	3	3	8	4	
24	1	2	3	3	4	6	
	2	3	1	2	3	4	
	3	5	1	1	3	2	
25	1	5	2	3	2	6	
	2	6	2	3	2	5	
	3	8	2	3	2	4	
26	1	1	2	4	6	6	
	2	6	1	3	3	2	
	3	8	1	3	2	1	
27	1	4	5	2	7	9	
	2	9	3	1	7	8	
	3	10	3	1	5	8	
28	1	4	4	4	7	8	
	2	5	3	4	3	6	
	3	8	2	4	1	5	
29	1	3	5	4	7	7	
	2	4	5	4	6	7	
	3	10	5	3	5	7	
30	1	3	5	5	7	9	
	2	6	2	4	7	4	
	3	7	1	3	7	2	
31	1	2	5	4	7	6	
	2	3	3	2	5	6	
	3	6	2	1	4	6	
32	1	2	2	4	7	4	
	2	4	1	3	6	3	
	3	8	1	3	6	2	
33	1	2	3	3	5	8	
	2	8	3	3	4	7	
	3	9	3	3	4	5	
34	1	2	2	4	3	5	
	2	3	2	4	2	4	
	3	6	2	4	2	3	
35	1	3	2	3	5	10	
	2	4	2	2	4	6	
	3	9	2	2	4	5	
36	1	1	3	4	10	10	
	2	4	2	2	7	7	
	3	8	1	2	7	3	
37	1	4	1	3	8	9	
	2	9	1	2	8	7	
	3	10	1	1	7	7	
38	1	4	3	5	7	10	
	2	6	2	3	7	7	
	3	9	1	3	7	5	
39	1	1	5	3	7	3	
	2	2	4	2	7	2	
	3	9	4	1	7	2	
40	1	2	3	1	7	4	
	2	7	1	1	5	2	
	3	10	1	1	4	2	
41	1	2	2	2	7	9	
	2	4	2	2	7	5	
	3	9	2	2	4	4	
42	1	2	4	4	9	9	
	2	6	4	4	9	8	
	3	10	4	4	7	9	
43	1	2	3	2	7	10	
	2	4	3	2	7	9	
	3	10	3	2	6	9	
44	1	4	3	3	7	6	
	2	6	3	3	7	5	
	3	8	3	2	5	3	
45	1	1	3	5	8	7	
	2	4	3	4	7	3	
	3	9	3	3	6	2	
46	1	2	2	4	7	3	
	2	5	1	4	5	2	
	3	10	1	4	2	1	
47	1	1	4	4	8	1	
	2	4	2	4	7	1	
	3	10	1	4	7	1	
48	1	2	3	2	9	8	
	2	5	3	2	6	4	
	3	7	3	2	4	2	
49	1	2	5	3	9	4	
	2	3	4	3	7	4	
	3	8	4	2	5	3	
50	1	7	5	5	8	4	
	2	8	4	3	8	4	
	3	9	4	2	7	3	
51	1	2	4	4	6	3	
	2	9	4	4	4	3	
	3	10	4	2	2	3	
52	1	3	4	1	5	10	
	2	6	4	1	5	9	
	3	10	4	1	5	8	
53	1	5	5	3	7	9	
	2	6	4	3	4	7	
	3	7	3	3	2	6	
54	1	1	5	4	9	9	
	2	2	4	3	8	7	
	3	8	3	3	6	5	
55	1	1	3	4	4	7	
	2	2	1	4	3	5	
	3	9	1	4	1	4	
56	1	1	5	3	6	4	
	2	4	4	2	6	4	
	3	10	3	2	3	4	
57	1	3	5	2	6	8	
	2	5	3	1	3	8	
	3	7	1	1	2	6	
58	1	7	4	4	8	7	
	2	9	3	3	8	5	
	3	10	2	3	7	3	
59	1	7	4	2	5	9	
	2	8	3	1	4	9	
	3	10	2	1	2	9	
60	1	7	5	1	9	9	
	2	8	4	1	9	7	
	3	10	2	1	9	5	
61	1	1	4	5	3	9	
	2	5	2	4	2	9	
	3	10	1	2	2	9	
62	1	5	2	4	7	8	
	2	8	2	2	4	7	
	3	10	2	2	3	4	
63	1	1	4	4	6	7	
	2	7	4	4	6	6	
	3	8	4	2	6	6	
64	1	3	3	1	8	4	
	2	4	3	1	7	3	
	3	7	3	1	6	1	
65	1	6	4	5	6	10	
	2	7	4	4	6	10	
	3	8	3	3	3	10	
66	1	2	3	3	3	9	
	2	3	3	2	3	6	
	3	10	3	1	2	6	
67	1	2	5	4	6	8	
	2	5	4	2	3	8	
	3	6	4	2	3	6	
68	1	6	3	3	8	9	
	2	9	3	2	5	7	
	3	10	1	2	4	5	
69	1	1	5	4	7	7	
	2	4	3	4	7	6	
	3	7	1	4	6	6	
70	1	3	5	5	9	8	
	2	4	3	2	5	7	
	3	7	3	1	2	5	
71	1	3	3	5	5	9	
	2	6	3	3	3	9	
	3	8	3	1	2	9	
72	1	1	1	4	8	6	
	2	2	1	2	8	5	
	3	4	1	2	8	4	
73	1	7	2	3	7	7	
	2	8	2	1	6	5	
	3	10	2	1	3	5	
74	1	6	4	4	5	6	
	2	8	3	4	4	5	
	3	9	3	4	3	5	
75	1	3	5	3	8	9	
	2	5	5	2	8	8	
	3	9	5	2	7	8	
76	1	7	1	5	9	10	
	2	8	1	2	8	10	
	3	10	1	1	6	10	
77	1	3	4	5	5	5	
	2	4	3	3	3	3	
	3	7	3	3	3	2	
78	1	3	2	5	8	4	
	2	7	2	3	4	4	
	3	8	2	2	4	2	
79	1	2	3	4	10	8	
	2	4	1	3	7	7	
	3	7	1	3	7	6	
80	1	7	4	2	8	5	
	2	9	3	2	4	4	
	3	10	2	1	3	3	
81	1	1	4	5	9	8	
	2	2	3	4	8	7	
	3	3	2	4	8	4	
82	1	1	2	4	1	10	
	2	2	2	3	1	9	
	3	4	2	2	1	9	
83	1	6	4	5	10	3	
	2	7	3	4	8	2	
	3	8	3	4	6	2	
84	1	1	2	2	10	4	
	2	3	2	2	7	4	
	3	4	2	2	5	4	
85	1	1	5	5	9	8	
	2	5	3	4	8	6	
	3	6	3	4	8	5	
86	1	3	2	5	7	7	
	2	6	1	4	5	5	
	3	7	1	4	3	5	
87	1	3	2	2	6	9	
	2	4	2	2	4	7	
	3	5	1	2	2	7	
88	1	1	3	5	8	6	
	2	5	2	5	8	6	
	3	7	2	5	8	5	
89	1	7	3	4	9	8	
	2	8	2	2	4	6	
	3	9	1	2	3	3	
90	1	6	4	5	9	9	
	2	8	2	4	8	6	
	3	9	2	4	7	2	
91	1	1	3	3	7	9	
	2	2	2	3	7	8	
	3	6	2	2	5	8	
92	1	2	4	5	9	8	
	2	3	4	5	7	8	
	3	10	4	5	6	5	
93	1	6	2	2	3	8	
	2	8	2	1	1	7	
	3	10	2	1	1	5	
94	1	1	5	5	5	5	
	2	4	4	4	4	3	
	3	6	3	4	1	3	
95	1	1	1	5	9	8	
	2	4	1	4	8	6	
	3	9	1	4	7	5	
96	1	2	3	5	7	6	
	2	9	2	4	7	6	
	3	10	2	2	6	5	
97	1	4	3	3	9	7	
	2	5	3	2	9	6	
	3	6	3	2	9	5	
98	1	4	2	5	6	8	
	2	5	1	4	6	4	
	3	7	1	4	6	3	
99	1	8	3	4	7	7	
	2	9	2	3	6	7	
	3	10	1	2	5	4	
100	1	3	2	2	7	3	
	2	6	2	1	7	3	
	3	10	2	1	7	2	
101	1	2	4	1	9	6	
	2	7	3	1	6	6	
	3	10	3	1	4	6	
102	1	0	0	0	0	0	
************************************************************************

 RESOURCE AVAILABILITIES 
	R 1	R 2	N 1	N 2
	14	14	574	588

************************************************************************
